# Solution for model r3_t27_m6_2
# Finished Task: 22 / 27
# Makespan: 895.0, Total Distance: 1012.0, Total Time: 2.8716
# R O S F
0 0 12 0.0 0.0
1 1 23 0.0 0.0
2 2 8 0.0 0.0
3 0 26 745.0 767.0
4 2 14 595.0 627.0
5 -1 -1 -1.0 -1.0
6 2 -1 856.0 883.0
7 2 22 698.0 729.0
8 2 20 163.0 200.0
9 -1 -1 -1.0 -1.0
10 1 21 752.0 788.0
11 0 19 682.0 707.0
12 0 17 146.0 183.0
13 -1 -1 -1.0 -1.0
14 2 7 650.0 679.0
15 -1 -1 -1.0 -1.0
16 0 24 560.0 585.0
17 0 16 497.0 536.0
18 2 4 557.0 595.0
19 0 3 724.0 745.0
20 2 25 281.0 306.0
21 1 29 835.0 864.0
22 2 6 753.0 774.0
23 1 27 563.0 590.0
24 0 11 655.0 676.0
25 2 18 464.0 501.0
26 0 -1 814.0 841.0
27 1 10 662.0 700.0
28 -1 -1 -1.0 -1.0
29 1 -1 872.0 895.0
